c Standarized MaxSat Instance
c{
c "sha1sum": "24de56cca09f6370519194e13b3496cabd598fa8",
c "nvars": 341,
c "ncls": 917,
c "total_lits": 2549,
c "nhards": 847,
c "nhard_nlits": 2479,
c "nhard_len_stats":
c    { "min": 2,
c      "max": 4,
c      "ave": 2.9268,
c      "stddev": 0.6496 },
c "nsofts": 70,
c "nsoft_nlits": 70,
c "nsoft_len_stats":
c    { "min": 1,
c      "max": 1,
c      "ave": 1.0000,
c      "stddev": 0.0000 },
c "nsoft_wts": 1,
c "soft_wt_stats":
c    { "min": 1,
c      "max": 1,
c      "ave": 1.0000,
c      "stddev": 0.0000 }
c}
c------------------------------------------------------------
c This instance encodes a supposedly trivial MaxSAT formula.
c The hard part of the formula encodes a cardinality constraint:
c     x1 + ... + x70 <= 32
c Cardinality encoding used is 'kmtot'.
c The soft part prefers all the variables to be set to true:
c     x1 = 1, ..., x70 = 1
c As a result, the optimum cost for this formula is 38.
c
1 1 0
1 2 0
1 3 0
1 4 0
1 5 0
1 6 0
1 7 0
1 8 0
1 9 0
1 10 0
1 11 0
1 12 0
1 13 0
1 14 0
1 15 0
1 16 0
1 17 0
1 18 0
1 19 0
1 20 0
1 21 0
1 22 0
1 23 0
1 24 0
1 25 0
1 26 0
1 27 0
1 28 0
1 29 0
1 30 0
1 31 0
1 32 0
1 33 0
1 34 0
1 35 0
1 36 0
1 37 0
1 38 0
1 39 0
1 40 0
1 41 0
1 42 0
1 43 0
1 44 0
1 45 0
1 46 0
1 47 0
1 48 0
1 49 0
1 50 0
1 51 0
1 52 0
1 53 0
1 54 0
1 55 0
1 56 0
1 57 0
1 58 0
1 59 0
1 60 0
1 61 0
1 62 0
1 63 0
1 64 0
1 65 0
1 66 0
1 67 0
1 68 0
1 69 0
1 70 0
h -97 77 101 0
h -98 78 101 0
h -99 79 101 0
h -100 80 101 0
h -87 77 101 0
h -88 78 101 0
h -89 79 101 0
h -90 80 101 0
h -87 -97 78 101 0
h -87 -98 79 101 0
h -87 -99 80 101 0
h -87 -100 101 0
h -88 -97 79 101 0
h -88 -98 80 101 0
h -88 -99 101 0
h -88 -100 77 0
h -89 -97 80 101 0
h -89 -98 101 0
h -89 -99 77 0
h -89 -100 78 0
h -90 -97 101 0
h -90 -98 77 0
h -90 -99 78 0
h -90 -100 79 0
h -101 71 0
h -91 71 0
h -101 -91 72 0
h -92 72 0
h -101 -92 73 0
h -93 73 0
h -101 -93 74 0
h -94 74 0
h -101 -94 75 0
h -95 75 0
h -101 -95 76 0
h -96 76 0
h -101 -96 0
h -81 71 0
h -101 -81 72 0
h -82 72 0
h -101 -82 73 0
h -83 73 0
h -101 -83 74 0
h -84 74 0
h -101 -84 75 0
h -85 75 0
h -101 -85 76 0
h -86 76 0
h -101 -86 0
h -81 -91 72 0
h -101 -81 -91 73 0
h -81 -92 73 0
h -101 -81 -92 74 0
h -81 -93 74 0
h -101 -81 -93 75 0
h -81 -94 75 0
h -101 -81 -94 76 0
h -81 -95 76 0
h -101 -81 -95 0
h -81 -96 0
h -101 -81 -96 0
h -82 -91 73 0
h -101 -82 -91 74 0
h -82 -92 74 0
h -101 -82 -92 75 0
h -82 -93 75 0
h -101 -82 -93 76 0
h -82 -94 76 0
h -101 -82 -94 0
h -82 -95 0
h -101 -82 -95 0
h -82 -96 0
h -101 -82 -96 0
h -83 -91 74 0
h -101 -83 -91 75 0
h -83 -92 75 0
h -101 -83 -92 76 0
h -83 -93 76 0
h -101 -83 -93 0
h -83 -94 0
h -101 -83 -94 0
h -83 -95 0
h -101 -83 -95 0
h -83 -96 0
h -101 -83 -96 0
h -84 -91 75 0
h -101 -84 -91 76 0
h -84 -92 76 0
h -101 -84 -92 0
h -84 -93 0
h -101 -84 -93 0
h -84 -94 0
h -101 -84 -94 0
h -84 -95 0
h -101 -84 -95 0
h -84 -96 0
h -101 -84 -96 0
h -85 -91 76 0
h -101 -85 -91 0
h -85 -92 0
h -101 -85 -92 0
h -85 -93 0
h -101 -85 -93 0
h -85 -94 0
h -101 -85 -94 0
h -85 -95 0
h -101 -85 -95 0
h -85 -96 0
h -101 -85 -96 0
h -86 -91 0
h -101 -86 -91 0
h -86 -92 0
h -101 -86 -92 0
h -86 -93 0
h -101 -86 -93 0
h -86 -94 0
h -101 -86 -94 0
h -86 -95 0
h -101 -86 -95 0
h -86 -96 0
h -101 -86 -96 0
h -112 97 116 0
h -113 98 116 0
h -114 99 116 0
h -115 100 116 0
h -105 97 116 0
h -106 98 116 0
h -107 99 116 0
h -108 100 116 0
h -105 -112 98 116 0
h -105 -113 99 116 0
h -105 -114 100 116 0
h -105 -115 116 0
h -106 -112 99 116 0
h -106 -113 100 116 0
h -106 -114 116 0
h -106 -115 97 0
h -107 -112 100 116 0
h -107 -113 116 0
h -107 -114 97 0
h -107 -115 98 0
h -108 -112 116 0
h -108 -113 97 0
h -108 -114 98 0
h -108 -115 99 0
h -116 91 0
h -109 91 0
h -116 -109 92 0
h -110 92 0
h -116 -110 93 0
h -111 93 0
h -116 -111 94 0
h -102 91 0
h -116 -102 92 0
h -103 92 0
h -116 -103 93 0
h -104 93 0
h -116 -104 94 0
h -102 -109 92 0
h -116 -102 -109 93 0
h -102 -110 93 0
h -116 -102 -110 94 0
h -102 -111 94 0
h -116 -102 -111 95 0
h -103 -109 93 0
h -116 -103 -109 94 0
h -103 -110 94 0
h -116 -103 -110 95 0
h -103 -111 95 0
h -116 -103 -111 96 0
h -104 -109 94 0
h -116 -104 -109 95 0
h -104 -110 95 0
h -116 -104 -110 96 0
h -104 -111 96 0
h -116 -104 -111 0
h -123 112 127 0
h -124 113 127 0
h -125 114 127 0
h -126 115 127 0
h -118 112 127 0
h -119 113 127 0
h -120 114 127 0
h -121 115 127 0
h -118 -123 113 127 0
h -118 -124 114 127 0
h -118 -125 115 127 0
h -118 -126 127 0
h -119 -123 114 127 0
h -119 -124 115 127 0
h -119 -125 127 0
h -119 -126 112 0
h -120 -123 115 127 0
h -120 -124 127 0
h -120 -125 112 0
h -120 -126 113 0
h -121 -123 127 0
h -121 -124 112 0
h -121 -125 113 0
h -121 -126 114 0
h -127 109 0
h -122 109 0
h -127 -122 110 0
h -117 109 0
h -127 -117 110 0
h -117 -122 110 0
h -127 -117 -122 111 0
h -134 128 0
h -135 129 0
h -132 128 0
h -133 129 0
h -132 -134 129 0
h -132 -135 130 0
h -133 -134 130 0
h -133 -135 131 0
h -66 134 0
h -65 134 0
h -65 -66 135 0
h -64 132 0
h -63 132 0
h -63 -64 133 0
h -142 136 0
h -143 137 0
h -140 136 0
h -141 137 0
h -140 -142 137 0
h -140 -143 138 0
h -141 -142 138 0
h -141 -143 139 0
h -70 142 0
h -69 142 0
h -69 -70 143 0
h -68 140 0
h -67 140 0
h -67 -68 141 0
h -136 123 144 0
h -137 124 144 0
h -138 125 144 0
h -139 126 144 0
h -128 123 144 0
h -129 124 144 0
h -130 125 144 0
h -131 126 144 0
h -128 -136 124 144 0
h -128 -137 125 144 0
h -128 -138 126 144 0
h -128 -139 144 0
h -129 -136 125 144 0
h -129 -137 126 144 0
h -129 -138 144 0
h -129 -139 123 0
h -130 -136 126 144 0
h -130 -137 144 0
h -130 -138 123 0
h -130 -139 124 0
h -131 -136 144 0
h -131 -137 123 0
h -131 -138 124 0
h -131 -139 125 0
h -144 122 0
h -156 150 0
h -157 151 0
h -154 150 0
h -155 151 0
h -154 -156 151 0
h -154 -157 152 0
h -155 -156 152 0
h -155 -157 153 0
h -62 156 0
h -61 156 0
h -61 -62 157 0
h -60 154 0
h -59 154 0
h -59 -60 155 0
h -150 118 158 0
h -151 119 158 0
h -152 120 158 0
h -153 121 158 0
h -146 118 158 0
h -147 119 158 0
h -148 120 158 0
h -149 121 158 0
h -146 -150 119 158 0
h -146 -151 120 158 0
h -146 -152 121 158 0
h -146 -153 158 0
h -147 -150 120 158 0
h -147 -151 121 158 0
h -147 -152 158 0
h -147 -153 118 0
h -148 -150 121 158 0
h -148 -151 158 0
h -148 -152 118 0
h -148 -153 119 0
h -149 -150 158 0
h -149 -151 118 0
h -149 -152 119 0
h -149 -153 120 0
h -158 117 0
h -145 117 0
h -158 -145 0
h -56 159 0
h -162 159 0
h -163 160 0
h -162 -56 160 0
h -163 -56 161 0
h -55 162 0
h -54 162 0
h -54 -55 163 0
h -58 164 0
h -57 164 0
h -57 -58 165 0
h -164 146 166 0
h -165 147 166 0
h -159 146 166 0
h -160 147 166 0
h -161 148 166 0
h -159 -164 147 166 0
h -159 -165 148 166 0
h -160 -164 148 166 0
h -160 -165 149 166 0
h -161 -164 149 166 0
h -161 -165 166 0
h -166 145 0
h -173 105 177 0
h -174 106 177 0
h -175 107 177 0
h -176 108 177 0
h -168 105 177 0
h -169 106 177 0
h -170 107 177 0
h -171 108 177 0
h -168 -173 106 177 0
h -168 -174 107 177 0
h -168 -175 108 177 0
h -168 -176 177 0
h -169 -173 107 177 0
h -169 -174 108 177 0
h -169 -175 177 0
h -169 -176 105 0
h -170 -173 108 177 0
h -170 -174 177 0
h -170 -175 105 0
h -170 -176 106 0
h -171 -173 177 0
h -171 -174 105 0
h -171 -175 106 0
h -171 -176 107 0
h -177 102 0
h -172 102 0
h -177 -172 103 0
h -167 102 0
h -177 -167 103 0
h -167 -172 103 0
h -177 -167 -172 104 0
h -189 183 0
h -190 184 0
h -187 183 0
h -188 184 0
h -187 -189 184 0
h -187 -190 185 0
h -188 -189 185 0
h -188 -190 186 0
h -53 189 0
h -52 189 0
h -52 -53 190 0
h -51 187 0
h -50 187 0
h -50 -51 188 0
h -183 173 191 0
h -184 174 191 0
h -185 175 191 0
h -186 176 191 0
h -179 173 191 0
h -180 174 191 0
h -181 175 191 0
h -182 176 191 0
h -179 -183 174 191 0
h -179 -184 175 191 0
h -179 -185 176 191 0
h -179 -186 191 0
h -180 -183 175 191 0
h -180 -184 176 191 0
h -180 -185 191 0
h -180 -186 173 0
h -181 -183 176 191 0
h -181 -184 191 0
h -181 -185 173 0
h -181 -186 174 0
h -182 -183 191 0
h -182 -184 173 0
h -182 -185 174 0
h -182 -186 175 0
h -191 172 0
h -178 172 0
h -191 -178 0
h -47 192 0
h -195 192 0
h -196 193 0
h -195 -47 193 0
h -196 -47 194 0
h -46 195 0
h -45 195 0
h -45 -46 196 0
h -49 197 0
h -48 197 0
h -48 -49 198 0
h -197 179 199 0
h -198 180 199 0
h -192 179 199 0
h -193 180 199 0
h -194 181 199 0
h -192 -197 180 199 0
h -192 -198 181 199 0
h -193 -197 181 199 0
h -193 -198 182 199 0
h -194 -197 182 199 0
h -194 -198 199 0
h -199 178 0
h -211 205 0
h -212 206 0
h -209 205 0
h -210 206 0
h -209 -211 206 0
h -209 -212 207 0
h -210 -211 207 0
h -210 -212 208 0
h -44 211 0
h -43 211 0
h -43 -44 212 0
h -42 209 0
h -41 209 0
h -41 -42 210 0
h -205 168 213 0
h -206 169 213 0
h -207 170 213 0
h -208 171 213 0
h -201 168 213 0
h -202 169 213 0
h -203 170 213 0
h -204 171 213 0
h -201 -205 169 213 0
h -201 -206 170 213 0
h -201 -207 171 213 0
h -201 -208 213 0
h -202 -205 170 213 0
h -202 -206 171 213 0
h -202 -207 213 0
h -202 -208 168 0
h -203 -205 171 213 0
h -203 -206 213 0
h -203 -207 168 0
h -203 -208 169 0
h -204 -205 213 0
h -204 -206 168 0
h -204 -207 169 0
h -204 -208 170 0
h -213 167 0
h -200 167 0
h -213 -200 0
h -38 214 0
h -217 214 0
h -218 215 0
h -217 -38 215 0
h -218 -38 216 0
h -37 217 0
h -36 217 0
h -36 -37 218 0
h -40 219 0
h -39 219 0
h -39 -40 220 0
h -219 201 221 0
h -220 202 221 0
h -214 201 221 0
h -215 202 221 0
h -216 203 221 0
h -214 -219 202 221 0
h -214 -220 203 221 0
h -215 -219 203 221 0
h -215 -220 204 221 0
h -216 -219 204 221 0
h -216 -220 221 0
h -221 200 0
h -232 87 236 0
h -233 88 236 0
h -234 89 236 0
h -235 90 236 0
h -225 87 236 0
h -226 88 236 0
h -227 89 236 0
h -228 90 236 0
h -225 -232 88 236 0
h -225 -233 89 236 0
h -225 -234 90 236 0
h -225 -235 236 0
h -226 -232 89 236 0
h -226 -233 90 236 0
h -226 -234 236 0
h -226 -235 87 0
h -227 -232 90 236 0
h -227 -233 236 0
h -227 -234 87 0
h -227 -235 88 0
h -228 -232 236 0
h -228 -233 87 0
h -228 -234 88 0
h -228 -235 89 0
h -236 81 0
h -229 81 0
h -236 -229 82 0
h -230 82 0
h -236 -230 83 0
h -231 83 0
h -236 -231 84 0
h -222 81 0
h -236 -222 82 0
h -223 82 0
h -236 -223 83 0
h -224 83 0
h -236 -224 84 0
h -222 -229 82 0
h -236 -222 -229 83 0
h -222 -230 83 0
h -236 -222 -230 84 0
h -222 -231 84 0
h -236 -222 -231 85 0
h -223 -229 83 0
h -236 -223 -229 84 0
h -223 -230 84 0
h -236 -223 -230 85 0
h -223 -231 85 0
h -236 -223 -231 86 0
h -224 -229 84 0
h -236 -224 -229 85 0
h -224 -230 85 0
h -236 -224 -230 86 0
h -224 -231 86 0
h -236 -224 -231 0
h -243 232 247 0
h -244 233 247 0
h -245 234 247 0
h -246 235 247 0
h -238 232 247 0
h -239 233 247 0
h -240 234 247 0
h -241 235 247 0
h -238 -243 233 247 0
h -238 -244 234 247 0
h -238 -245 235 247 0
h -238 -246 247 0
h -239 -243 234 247 0
h -239 -244 235 247 0
h -239 -245 247 0
h -239 -246 232 0
h -240 -243 235 247 0
h -240 -244 247 0
h -240 -245 232 0
h -240 -246 233 0
h -241 -243 247 0
h -241 -244 232 0
h -241 -245 233 0
h -241 -246 234 0
h -247 229 0
h -242 229 0
h -247 -242 230 0
h -237 229 0
h -247 -237 230 0
h -237 -242 230 0
h -247 -237 -242 231 0
h -254 248 0
h -255 249 0
h -252 248 0
h -253 249 0
h -252 -254 249 0
h -252 -255 250 0
h -253 -254 250 0
h -253 -255 251 0
h -31 254 0
h -30 254 0
h -30 -31 255 0
h -29 252 0
h -28 252 0
h -28 -29 253 0
h -262 256 0
h -263 257 0
h -260 256 0
h -261 257 0
h -260 -262 257 0
h -260 -263 258 0
h -261 -262 258 0
h -261 -263 259 0
h -35 262 0
h -34 262 0
h -34 -35 263 0
h -33 260 0
h -32 260 0
h -32 -33 261 0
h -256 243 264 0
h -257 244 264 0
h -258 245 264 0
h -259 246 264 0
h -248 243 264 0
h -249 244 264 0
h -250 245 264 0
h -251 246 264 0
h -248 -256 244 264 0
h -248 -257 245 264 0
h -248 -258 246 264 0
h -248 -259 264 0
h -249 -256 245 264 0
h -249 -257 246 264 0
h -249 -258 264 0
h -249 -259 243 0
h -250 -256 246 264 0
h -250 -257 264 0
h -250 -258 243 0
h -250 -259 244 0
h -251 -256 264 0
h -251 -257 243 0
h -251 -258 244 0
h -251 -259 245 0
h -264 242 0
h -276 270 0
h -277 271 0
h -274 270 0
h -275 271 0
h -274 -276 271 0
h -274 -277 272 0
h -275 -276 272 0
h -275 -277 273 0
h -27 276 0
h -26 276 0
h -26 -27 277 0
h -25 274 0
h -24 274 0
h -24 -25 275 0
h -270 238 278 0
h -271 239 278 0
h -272 240 278 0
h -273 241 278 0
h -266 238 278 0
h -267 239 278 0
h -268 240 278 0
h -269 241 278 0
h -266 -270 239 278 0
h -266 -271 240 278 0
h -266 -272 241 278 0
h -266 -273 278 0
h -267 -270 240 278 0
h -267 -271 241 278 0
h -267 -272 278 0
h -267 -273 238 0
h -268 -270 241 278 0
h -268 -271 278 0
h -268 -272 238 0
h -268 -273 239 0
h -269 -270 278 0
h -269 -271 238 0
h -269 -272 239 0
h -269 -273 240 0
h -278 237 0
h -265 237 0
h -278 -265 0
h -21 279 0
h -282 279 0
h -283 280 0
h -282 -21 280 0
h -283 -21 281 0
h -20 282 0
h -19 282 0
h -19 -20 283 0
h -23 284 0
h -22 284 0
h -22 -23 285 0
h -284 266 286 0
h -285 267 286 0
h -279 266 286 0
h -280 267 286 0
h -281 268 286 0
h -279 -284 267 286 0
h -279 -285 268 286 0
h -280 -284 268 286 0
h -280 -285 269 286 0
h -281 -284 269 286 0
h -281 -285 286 0
h -286 265 0
h -293 225 297 0
h -294 226 297 0
h -295 227 297 0
h -296 228 297 0
h -288 225 297 0
h -289 226 297 0
h -290 227 297 0
h -291 228 297 0
h -288 -293 226 297 0
h -288 -294 227 297 0
h -288 -295 228 297 0
h -288 -296 297 0
h -289 -293 227 297 0
h -289 -294 228 297 0
h -289 -295 297 0
h -289 -296 225 0
h -290 -293 228 297 0
h -290 -294 297 0
h -290 -295 225 0
h -290 -296 226 0
h -291 -293 297 0
h -291 -294 225 0
h -291 -295 226 0
h -291 -296 227 0
h -297 222 0
h -292 222 0
h -297 -292 223 0
h -287 222 0
h -297 -287 223 0
h -287 -292 223 0
h -297 -287 -292 224 0
h -309 303 0
h -310 304 0
h -307 303 0
h -308 304 0
h -307 -309 304 0
h -307 -310 305 0
h -308 -309 305 0
h -308 -310 306 0
h -18 309 0
h -17 309 0
h -17 -18 310 0
h -16 307 0
h -15 307 0
h -15 -16 308 0
h -303 293 311 0
h -304 294 311 0
h -305 295 311 0
h -306 296 311 0
h -299 293 311 0
h -300 294 311 0
h -301 295 311 0
h -302 296 311 0
h -299 -303 294 311 0
h -299 -304 295 311 0
h -299 -305 296 311 0
h -299 -306 311 0
h -300 -303 295 311 0
h -300 -304 296 311 0
h -300 -305 311 0
h -300 -306 293 0
h -301 -303 296 311 0
h -301 -304 311 0
h -301 -305 293 0
h -301 -306 294 0
h -302 -303 311 0
h -302 -304 293 0
h -302 -305 294 0
h -302 -306 295 0
h -311 292 0
h -298 292 0
h -311 -298 0
h -12 312 0
h -315 312 0
h -316 313 0
h -315 -12 313 0
h -316 -12 314 0
h -11 315 0
h -10 315 0
h -10 -11 316 0
h -14 317 0
h -13 317 0
h -13 -14 318 0
h -317 299 319 0
h -318 300 319 0
h -312 299 319 0
h -313 300 319 0
h -314 301 319 0
h -312 -317 300 319 0
h -312 -318 301 319 0
h -313 -317 301 319 0
h -313 -318 302 319 0
h -314 -317 302 319 0
h -314 -318 319 0
h -319 298 0
h -331 325 0
h -332 326 0
h -329 325 0
h -330 326 0
h -329 -331 326 0
h -329 -332 327 0
h -330 -331 327 0
h -330 -332 328 0
h -9 331 0
h -8 331 0
h -8 -9 332 0
h -7 329 0
h -6 329 0
h -6 -7 330 0
h -325 288 333 0
h -326 289 333 0
h -327 290 333 0
h -328 291 333 0
h -321 288 333 0
h -322 289 333 0
h -323 290 333 0
h -324 291 333 0
h -321 -325 289 333 0
h -321 -326 290 333 0
h -321 -327 291 333 0
h -321 -328 333 0
h -322 -325 290 333 0
h -322 -326 291 333 0
h -322 -327 333 0
h -322 -328 288 0
h -323 -325 291 333 0
h -323 -326 333 0
h -323 -327 288 0
h -323 -328 289 0
h -324 -325 333 0
h -324 -326 288 0
h -324 -327 289 0
h -324 -328 290 0
h -333 287 0
h -320 287 0
h -333 -320 0
h -3 334 0
h -337 334 0
h -338 335 0
h -337 -3 335 0
h -338 -3 336 0
h -2 337 0
h -1 337 0
h -1 -2 338 0
h -5 339 0
h -4 339 0
h -4 -5 340 0
h -339 321 341 0
h -340 322 341 0
h -334 321 341 0
h -335 322 341 0
h -336 323 341 0
h -334 -339 322 341 0
h -334 -340 323 341 0
h -335 -339 323 341 0
h -335 -340 324 341 0
h -336 -339 324 341 0
h -336 -340 341 0
h -341 320 0
h -76 -79 0
h -76 -80 0
